NAME: 7 - 5_TSP
TYPE: TSP
COMMENT: Converted from adjacency list to TSP instance
DIMENSION: 50
EDGE_WEIGHT_TYPE: EXPLICIT
EDGE_WEIGHT_FORMAT: FULL_MATRIX
EDGE_WEIGHT_SECTION
0 1 1 1 1 1 1 1 10000000000 10000000000 10000000000 10000000000 10000000000 10000000000 10000000000 10000000000 10000000000 10000000000 10000000000 10000000000 10000000000 10000000000 10000000000 10000000000 10000000000 10000000000 10000000000 10000000000 10000000000 10000000000 10000000000 10000000000 10000000000 10000000000 10000000000 10000000000 10000000000 10000000000 10000000000 10000000000 10000000000 10000000000 10000000000 10000000000 10000000000 10000000000 10000000000 10000000000 10000000000 10000000000
1 0 10000000000 10000000000 10000000000 10000000000 10000000000 10000000000 1 1 1 1 1 1 10000000000 10000000000 10000000000 10000000000 10000000000 10000000000 10000000000 10000000000 10000000000 10000000000 10000000000 10000000000 10000000000 10000000000 10000000000 10000000000 10000000000 10000000000 10000000000 10000000000 10000000000 10000000000 10000000000 10000000000 10000000000 10000000000 10000000000 10000000000 10000000000 10000000000 10000000000 10000000000 10000000000 10000000000 10000000000 10000000000
1 10000000000 0 10000000000 10000000000 10000000000 10000000000 10000000000 10000000000 10000000000 10000000000 10000000000 10000000000 10000000000 1 10000000000 10000000000 10000000000 10000000000 10000000000 10000000000 10000000000 10000000000 10000000000 10000000000 1 1 1 1 1 10000000000 10000000000 10000000000 10000000000 10000000000 10000000000 10000000000 10000000000 10000000000 10000000000 10000000000 10000000000 10000000000 10000000000 10000000000 10000000000 10000000000 10000000000 10000000000 10000000000
1 10000000000 10000000000 0 10000000000 10000000000 10000000000 10000000000 10000000000 10000000000 10000000000 10000000000 10000000000 10000000000 10000000000 10000000000 10000000000 1 10000000000 10000000000 10000000000 10000000000 10000000000 1 10000000000 10000000000 10000000000 10000000000 10000000000 10000000000 1 10000000000 10000000000 10000000000 10000000000 10000000000 10000000000 10000000000 1 10000000000 10000000000 10000000000 10000000000 10000000000 10000000000 10000000000 1 1 10000000000 10000000000
1 10000000000 10000000000 10000000000 0 10000000000 10000000000 10000000000 10000000000 10000000000 10000000000 10000000000 10000000000 10000000000 10000000000 10000000000 1 10000000000 10000000000 10000000000 10000000000 1 10000000000 10000000000 10000000000 10000000000 10000000000 10000000000 10000000000 10000000000 10000000000 1 10000000000 10000000000 10000000000 10000000000 10000000000 10000000000 10000000000 10000000000 1 1 1 10000000000 10000000000 10000000000 10000000000 10000000000 10000000000 10000000000
1 10000000000 10000000000 10000000000 10000000000 0 10000000000 10000000000 10000000000 10000000000 10000000000 10000000000 10000000000 10000000000 10000000000 10000000000 10000000000 10000000000 10000000000 1 10000000000 10000000000 10000000000 10000000000 1 10000000000 10000000000 10000000000 10000000000 10000000000 10000000000 10000000000 1 10000000000 1 10000000000 10000000000 10000000000 10000000000 1 10000000000 10000000000 10000000000 10000000000 1 10000000000 10000000000 10000000000 10000000000 10000000000
1 10000000000 10000000000 10000000000 10000000000 10000000000 0 10000000000 10000000000 10000000000 10000000000 10000000000 10000000000 10000000000 10000000000 10000000000 10000000000 10000000000 1 10000000000 1 10000000000 10000000000 10000000000 10000000000 10000000000 10000000000 10000000000 10000000000 10000000000 10000000000 10000000000 10000000000 1 10000000000 10000000000 1 10000000000 10000000000 10000000000 10000000000 10000000000 10000000000 1 10000000000 10000000000 10000000000 10000000000 1 10000000000
1 10000000000 10000000000 10000000000 10000000000 10000000000 10000000000 0 10000000000 10000000000 10000000000 10000000000 10000000000 10000000000 10000000000 1 10000000000 10000000000 10000000000 10000000000 10000000000 10000000000 1 10000000000 10000000000 10000000000 10000000000 10000000000 10000000000 10000000000 10000000000 10000000000 10000000000 10000000000 10000000000 1 10000000000 1 10000000000 10000000000 10000000000 10000000000 10000000000 10000000000 10000000000 1 10000000000 10000000000 10000000000 1
10000000000 1 10000000000 10000000000 10000000000 10000000000 10000000000 10000000000 0 10000000000 10000000000 10000000000 10000000000 10000000000 1 10000000000 10000000000 10000000000 10000000000 10000000000 1 1 1 1 1 10000000000 10000000000 10000000000 10000000000 10000000000 10000000000 10000000000 10000000000 10000000000 10000000000 10000000000 10000000000 10000000000 10000000000 10000000000 10000000000 10000000000 10000000000 10000000000 10000000000 10000000000 10000000000 10000000000 10000000000 10000000000
10000000000 1 10000000000 10000000000 10000000000 10000000000 10000000000 10000000000 10000000000 0 10000000000 10000000000 10000000000 10000000000 10000000000 10000000000 10000000000 10000000000 10000000000 1 10000000000 10000000000 10000000000 10000000000 10000000000 10000000000 10000000000 1 10000000000 10000000000 1 10000000000 10000000000 10000000000 10000000000 10000000000 10000000000 1 10000000000 10000000000 10000000000 1 10000000000 10000000000 10000000000 10000000000 10000000000 10000000000 1 10000000000
10000000000 1 10000000000 10000000000 10000000000 10000000000 10000000000 10000000000 10000000000 10000000000 0 10000000000 10000000000 10000000000 10000000000 10000000000 1 10000000000 10000000000 10000000000 10000000000 10000000000 10000000000 10000000000 10000000000 1 10000000000 10000000000 10000000000 10000000000 10000000000 10000000000 10000000000 10000000000 10000000000 10000000000 10000000000 10000000000 10000000000 10000000000 10000000000 10000000000 10000000000 1 1 1 10000000000 1 10000000000 10000000000
10000000000 1 10000000000 10000000000 10000000000 10000000000 10000000000 10000000000 10000000000 10000000000 10000000000 0 10000000000 10000000000 10000000000 10000000000 10000000000 10000000000 1 10000000000 10000000000 10000000000 10000000000 10000000000 10000000000 10000000000 10000000000 10000000000 10000000000 1 10000000000 10000000000 1 10000000000 10000000000 1 10000000000 10000000000 1 10000000000 10000000000 10000000000 1 10000000000 10000000000 10000000000 10000000000 10000000000 10000000000 10000000000
10000000000 1 10000000000 10000000000 10000000000 10000000000 10000000000 10000000000 10000000000 10000000000 10000000000 10000000000 0 10000000000 10000000000 10000000000 10000000000 1 10000000000 10000000000 10000000000 10000000000 10000000000 10000000000 10000000000 10000000000 1 10000000000 10000000000 10000000000 10000000000 1 10000000000 1 10000000000 10000000000 10000000000 10000000000 10000000000 1 10000000000 10000000000 10000000000 10000000000 10000000000 10000000000 10000000000 10000000000 10000000000 1
10000000000 1 10000000000 10000000000 10000000000 10000000000 10000000000 10000000000 10000000000 10000000000 10000000000 10000000000 10000000000 0 10000000000 1 10000000000 10000000000 10000000000 10000000000 10000000000 10000000000 10000000000 10000000000 10000000000 10000000000 10000000000 10000000000 1 10000000000 10000000000 10000000000 10000000000 10000000000 1 10000000000 1 10000000000 10000000000 10000000000 1 10000000000 10000000000 10000000000 10000000000 10000000000 1 10000000000 10000000000 10000000000
10000000000 10000000000 1 10000000000 10000000000 10000000000 10000000000 10000000000 1 10000000000 10000000000 10000000000 10000000000 10000000000 0 1 1 1 1 1 10000000000 10000000000 10000000000 10000000000 10000000000 10000000000 10000000000 10000000000 10000000000 10000000000 10000000000 10000000000 10000000000 10000000000 10000000000 10000000000 10000000000 10000000000 10000000000 10000000000 10000000000 10000000000 10000000000 10000000000 10000000000 10000000000 10000000000 10000000000 10000000000 10000000000
10000000000 10000000000 10000000000 10000000000 10000000000 10000000000 10000000000 1 10000000000 10000000000 10000000000 10000000000 10000000000 1 1 0 10000000000 10000000000 10000000000 10000000000 10000000000 10000000000 10000000000 10000000000 10000000000 10000000000 10000000000 10000000000 10000000000 10000000000 1 10000000000 10000000000 10000000000 10000000000 10000000000 10000000000 10000000000 10000000000 1 10000000000 10000000000 1 1 10000000000 10000000000 10000000000 10000000000 10000000000 10000000000
10000000000 10000000000 10000000000 10000000000 1 10000000000 10000000000 10000000000 10000000000 10000000000 1 10000000000 10000000000 10000000000 1 10000000000 0 10000000000 10000000000 10000000000 10000000000 10000000000 10000000000 10000000000 10000000000 10000000000 10000000000 10000000000 10000000000 10000000000 10000000000 10000000000 1 10000000000 10000000000 10000000000 10000000000 10000000000 10000000000 10000000000 10000000000 10000000000 10000000000 10000000000 10000000000 10000000000 1 10000000000 1 1
10000000000 10000000000 10000000000 1 10000000000 10000000000 10000000000 10000000000 10000000000 10000000000 10000000000 10000000000 1 10000000000 1 10000000000 10000000000 0 10000000000 10000000000 10000000000 10000000000 10000000000 10000000000 10000000000 10000000000 10000000000 10000000000 10000000000 10000000000 10000000000 10000000000 10000000000 10000000000 10000000000 1 1 10000000000 10000000000 10000000000 10000000000 1 10000000000 10000000000 1 10000000000 10000000000 10000000000 10000000000 10000000000
10000000000 10000000000 10000000000 10000000000 10000000000 10000000000 1 10000000000 10000000000 10000000000 10000000000 1 10000000000 10000000000 1 10000000000 10000000000 10000000000 0 10000000000 10000000000 10000000000 10000000000 10000000000 10000000000 10000000000 10000000000 10000000000 10000000000 10000000000 10000000000 1 10000000000 10000000000 1 10000000000 10000000000 1 10000000000 10000000000 10000000000 10000000000 10000000000 10000000000 10000000000 10000000000 10000000000 1 10000000000 10000000000
10000000000 10000000000 10000000000 10000000000 10000000000 1 10000000000 10000000000 10000000000 1 10000000000 10000000000 10000000000 10000000000 1 10000000000 10000000000 10000000000 10000000000 0 10000000000 10000000000 10000000000 10000000000 10000000000 10000000000 10000000000 10000000000 10000000000 10000000000 10000000000 10000000000 10000000000 1 10000000000 10000000000 10000000000 10000000000 1 10000000000 1 10000000000 10000000000 10000000000 10000000000 1 10000000000 10000000000 10000000000 10000000000
10000000000 10000000000 10000000000 10000000000 10000000000 10000000000 1 10000000000 1 10000000000 10000000000 10000000000 10000000000 10000000000 10000000000 10000000000 10000000000 10000000000 10000000000 10000000000 0 10000000000 10000000000 10000000000 10000000000 10000000000 10000000000 10000000000 10000000000 1 1 10000000000 10000000000 10000000000 10000000000 10000000000 10000000000 10000000000 10000000000 10000000000 1 10000000000 10000000000 10000000000 1 10000000000 10000000000 10000000000 10000000000 1
10000000000 10000000000 10000000000 10000000000 1 10000000000 10000000000 10000000000 1 10000000000 10000000000 10000000000 10000000000 10000000000 10000000000 10000000000 10000000000 10000000000 10000000000 10000000000 10000000000 0 10000000000 10000000000 10000000000 1 10000000000 10000000000 10000000000 10000000000 10000000000 10000000000 10000000000 10000000000 10000000000 10000000000 1 1 1 1 10000000000 10000000000 10000000000 10000000000 10000000000 10000000000 10000000000 10000000000 10000000000 10000000000
10000000000 10000000000 10000000000 10000000000 10000000000 10000000000 10000000000 1 1 10000000000 10000000000 10000000000 10000000000 10000000000 10000000000 10000000000 10000000000 10000000000 10000000000 10000000000 10000000000 10000000000 0 10000000000 10000000000 10000000000 10000000000 10000000000 1 10000000000 10000000000 10000000000 1 1 10000000000 10000000000 10000000000 10000000000 10000000000 10000000000 10000000000 1 10000000000 10000000000 10000000000 10000000000 10000000000 1 10000000000 10000000000
10000000000 10000000000 10000000000 1 10000000000 10000000000 10000000000 10000000000 1 10000000000 10000000000 10000000000 10000000000 10000000000 10000000000 10000000000 10000000000 10000000000 10000000000 10000000000 10000000000 10000000000 10000000000 0 10000000000 10000000000 1 10000000000 10000000000 10000000000 10000000000 10000000000 10000000000 10000000000 1 10000000000 10000000000 10000000000 10000000000 10000000000 10000000000 10000000000 1 10000000000 10000000000 1 10000000000 10000000000 1 10000000000
10000000000 10000000000 10000000000 10000000000 10000000000 1 10000000000 10000000000 1 10000000000 10000000000 10000000000 10000000000 10000000000 10000000000 10000000000 10000000000 10000000000 10000000000 10000000000 10000000000 10000000000 10000000000 10000000000 0 10000000000 10000000000 1 10000000000 10000000000 10000000000 1 10000000000 10000000000 10000000000 1 10000000000 10000000000 10000000000 10000000000 10000000000 10000000000 10000000000 1 10000000000 10000000000 1 10000000000 10000000000 10000000000
10000000000 10000000000 1 10000000000 10000000000 10000000000 10000000000 10000000000 10000000000 10000000000 1 10000000000 10000000000 10000000000 10000000000 10000000000 10000000000 10000000000 10000000000 10000000000 10000000000 1 10000000000 10000000000 10000000000 0 10000000000 10000000000 10000000000 10000000000 1 10000000000 10000000000 1 1 1 10000000000 10000000000 10000000000 10000000000 10000000000 10000000000 10000000000 10000000000 10000000000 10000000000 10000000000 10000000000 10000000000 10000000000
10000000000 10000000000 1 10000000000 10000000000 10000000000 10000000000 10000000000 10000000000 10000000000 10000000000 10000000000 1 10000000000 10000000000 10000000000 10000000000 10000000000 10000000000 10000000000 10000000000 10000000000 10000000000 1 10000000000 10000000000 0 10000000000 10000000000 10000000000 10000000000 10000000000 1 10000000000 10000000000 10000000000 10000000000 1 10000000000 10000000000 1 10000000000 10000000000 1 10000000000 10000000000 10000000000 10000000000 10000000000 10000000000
10000000000 10000000000 1 10000000000 10000000000 10000000000 10000000000 10000000000 10000000000 1 10000000000 10000000000 10000000000 10000000000 10000000000 10000000000 10000000000 10000000000 10000000000 10000000000 10000000000 10000000000 10000000000 10000000000 1 10000000000 10000000000 0 10000000000 10000000000 10000000000 10000000000 10000000000 10000000000 10000000000 10000000000 1 10000000000 10000000000 10000000000 10000000000 10000000000 1 10000000000 10000000000 10000000000 10000000000 1 10000000000 1
10000000000 10000000000 1 10000000000 10000000000 10000000000 10000000000 10000000000 10000000000 10000000000 10000000000 10000000000 10000000000 1 10000000000 10000000000 10000000000 10000000000 10000000000 10000000000 10000000000 10000000000 1 10000000000 10000000000 10000000000 10000000000 10000000000 0 10000000000 10000000000 1 10000000000 10000000000 10000000000 10000000000 10000000000 10000000000 1 10000000000 10000000000 10000000000 10000000000 10000000000 1 10000000000 10000000000 10000000000 1 10000000000
10000000000 10000000000 1 10000000000 10000000000 10000000000 10000000000 10000000000 10000000000 10000000000 10000000000 1 10000000000 10000000000 10000000000 10000000000 10000000000 10000000000 10000000000 10000000000 1 10000000000 10000000000 10000000000 10000000000 10000000000 10000000000 10000000000 10000000000 0 10000000000 10000000000 10000000000 10000000000 10000000000 10000000000 10000000000 10000000000 10000000000 1 10000000000 1 10000000000 10000000000 10000000000 1 1 10000000000 10000000000 10000000000
10000000000 10000000000 10000000000 1 10000000000 10000000000 10000000000 10000000000 10000000000 1 10000000000 10000000000 10000000000 10000000000 10000000000 1 10000000000 10000000000 10000000000 10000000000 1 10000000000 10000000000 10000000000 10000000000 1 10000000000 10000000000 10000000000 10000000000 0 1 1 10000000000 10000000000 10000000000 10000000000 10000000000 10000000000 10000000000 10000000000 10000000000 10000000000 10000000000 10000000000 10000000000 10000000000 10000000000 10000000000 10000000000
10000000000 10000000000 10000000000 10000000000 1 10000000000 10000000000 10000000000 10000000000 10000000000 10000000000 10000000000 1 10000000000 10000000000 10000000000 10000000000 10000000000 1 10000000000 10000000000 10000000000 10000000000 10000000000 1 10000000000 10000000000 10000000000 1 10000000000 1 0 10000000000 10000000000 10000000000 10000000000 10000000000 10000000000 10000000000 10000000000 10000000000 10000000000 10000000000 10000000000 10000000000 1 10000000000 10000000000 10000000000 10000000000
10000000000 10000000000 10000000000 10000000000 10000000000 1 10000000000 10000000000 10000000000 10000000000 10000000000 1 10000000000 10000000000 10000000000 10000000000 1 10000000000 10000000000 10000000000 10000000000 10000000000 1 10000000000 10000000000 10000000000 1 10000000000 10000000000 10000000000 1 10000000000 0 10000000000 10000000000 10000000000 1 10000000000 10000000000 10000000000 10000000000 10000000000 10000000000 10000000000 10000000000 10000000000 10000000000 10000000000 10000000000 10000000000
10000000000 10000000000 10000000000 10000000000 10000000000 10000000000 1 10000000000 10000000000 10000000000 10000000000 10000000000 1 10000000000 10000000000 10000000000 10000000000 10000000000 10000000000 1 10000000000 10000000000 1 10000000000 10000000000 1 10000000000 10000000000 10000000000 10000000000 10000000000 10000000000 10000000000 0 10000000000 10000000000 10000000000 10000000000 10000000000 10000000000 10000000000 10000000000 1 10000000000 10000000000 10000000000 1 10000000000 10000000000 10000000000
10000000000 10000000000 10000000000 10000000000 10000000000 1 10000000000 10000000000 10000000000 10000000000 10000000000 10000000000 10000000000 1 10000000000 10000000000 10000000000 10000000000 1 10000000000 10000000000 10000000000 10000000000 1 10000000000 1 10000000000 10000000000 10000000000 10000000000 10000000000 10000000000 10000000000 10000000000 0 10000000000 10000000000 10000000000 10000000000 10000000000 10000000000 1 10000000000 10000000000 10000000000 10000000000 10000000000 10000000000 10000000000 1
10000000000 10000000000 10000000000 10000000000 10000000000 10000000000 10000000000 1 10000000000 10000000000 10000000000 1 10000000000 10000000000 10000000000 10000000000 10000000000 1 10000000000 10000000000 10000000000 10000000000 10000000000 10000000000 1 1 10000000000 10000000000 10000000000 10000000000 10000000000 10000000000 10000000000 10000000000 10000000000 0 10000000000 10000000000 10000000000 10000000000 1 10000000000 10000000000 10000000000 10000000000 10000000000 10000000000 10000000000 1 10000000000
10000000000 10000000000 10000000000 10000000000 10000000000 10000000000 1 10000000000 10000000000 10000000000 10000000000 10000000000 10000000000 1 10000000000 10000000000 10000000000 1 10000000000 10000000000 10000000000 1 10000000000 10000000000 10000000000 10000000000 10000000000 1 10000000000 10000000000 10000000000 10000000000 1 10000000000 10000000000 10000000000 0 10000000000 10000000000 10000000000 10000000000 10000000000 10000000000 10000000000 10000000000 1 10000000000 10000000000 10000000000 10000000000
10000000000 10000000000 10000000000 10000000000 10000000000 10000000000 10000000000 1 10000000000 1 10000000000 10000000000 10000000000 10000000000 10000000000 10000000000 10000000000 10000000000 1 10000000000 10000000000 1 10000000000 10000000000 10000000000 10000000000 1 10000000000 10000000000 10000000000 10000000000 10000000000 10000000000 10000000000 10000000000 10000000000 10000000000 0 10000000000 10000000000 10000000000 10000000000 10000000000 10000000000 1 10000000000 1 10000000000 10000000000 10000000000
10000000000 10000000000 10000000000 1 10000000000 10000000000 10000000000 10000000000 10000000000 10000000000 10000000000 1 10000000000 10000000000 10000000000 10000000000 10000000000 10000000000 10000000000 1 10000000000 1 10000000000 10000000000 10000000000 10000000000 10000000000 10000000000 1 10000000000 10000000000 10000000000 10000000000 10000000000 10000000000 10000000000 10000000000 10000000000 0 10000000000 10000000000 10000000000 10000000000 1 10000000000 10000000000 10000000000 10000000000 10000000000 1
10000000000 10000000000 10000000000 10000000000 10000000000 1 10000000000 10000000000 10000000000 10000000000 10000000000 10000000000 1 10000000000 10000000000 1 10000000000 10000000000 10000000000 10000000000 10000000000 1 10000000000 10000000000 10000000000 10000000000 10000000000 10000000000 10000000000 1 10000000000 10000000000 10000000000 10000000000 10000000000 10000000000 10000000000 10000000000 10000000000 0 10000000000 10000000000 10000000000 10000000000 10000000000 10000000000 10000000000 1 1 10000000000
10000000000 10000000000 10000000000 10000000000 1 10000000000 10000000000 10000000000 10000000000 10000000000 10000000000 10000000000 10000000000 1 10000000000 10000000000 10000000000 10000000000 10000000000 1 1 10000000000 10000000000 10000000000 10000000000 10000000000 1 10000000000 10000000000 10000000000 10000000000 10000000000 10000000000 10000000000 10000000000 1 10000000000 10000000000 10000000000 10000000000 0 10000000000 10000000000 10000000000 10000000000 10000000000 10000000000 1 10000000000 10000000000
10000000000 10000000000 10000000000 10000000000 1 10000000000 10000000000 10000000000 10000000000 1 10000000000 10000000000 10000000000 10000000000 10000000000 10000000000 10000000000 1 10000000000 10000000000 10000000000 10000000000 1 10000000000 10000000000 10000000000 10000000000 10000000000 10000000000 1 10000000000 10000000000 10000000000 10000000000 1 10000000000 10000000000 10000000000 10000000000 10000000000 10000000000 0 10000000000 1 10000000000 10000000000 10000000000 10000000000 10000000000 10000000000
10000000000 10000000000 10000000000 10000000000 1 10000000000 10000000000 10000000000 10000000000 10000000000 10000000000 1 10000000000 10000000000 10000000000 1 10000000000 10000000000 10000000000 10000000000 10000000000 10000000000 10000000000 1 10000000000 10000000000 10000000000 1 10000000000 10000000000 10000000000 10000000000 10000000000 1 10000000000 10000000000 10000000000 10000000000 10000000000 10000000000 10000000000 10000000000 0 10000000000 1 10000000000 10000000000 10000000000 10000000000 10000000000
10000000000 10000000000 10000000000 10000000000 10000000000 10000000000 1 10000000000 10000000000 10000000000 1 10000000000 10000000000 10000000000 10000000000 1 10000000000 10000000000 10000000000 10000000000 10000000000 10000000000 10000000000 10000000000 1 10000000000 1 10000000000 10000000000 10000000000 10000000000 10000000000 10000000000 10000000000 10000000000 10000000000 10000000000 10000000000 1 10000000000 10000000000 1 10000000000 0 10000000000 10000000000 10000000000 10000000000 10000000000 10000000000
10000000000 10000000000 10000000000 10000000000 10000000000 1 10000000000 10000000000 10000000000 10000000000 1 10000000000 10000000000 10000000000 10000000000 10000000000 10000000000 1 10000000000 10000000000 1 10000000000 10000000000 10000000000 10000000000 10000000000 10000000000 10000000000 1 10000000000 10000000000 10000000000 10000000000 10000000000 10000000000 10000000000 10000000000 1 10000000000 10000000000 10000000000 10000000000 1 10000000000 0 10000000000 10000000000 10000000000 10000000000 10000000000
10000000000 10000000000 10000000000 10000000000 10000000000 10000000000 10000000000 1 10000000000 10000000000 1 10000000000 10000000000 10000000000 10000000000 10000000000 10000000000 10000000000 10000000000 1 10000000000 10000000000 10000000000 1 10000000000 10000000000 10000000000 10000000000 10000000000 1 10000000000 1 10000000000 10000000000 10000000000 10000000000 1 10000000000 10000000000 10000000000 10000000000 10000000000 10000000000 10000000000 10000000000 0 10000000000 10000000000 10000000000 10000000000
10000000000 10000000000 10000000000 1 10000000000 10000000000 10000000000 10000000000 10000000000 10000000000 10000000000 10000000000 10000000000 1 10000000000 10000000000 1 10000000000 10000000000 10000000000 10000000000 10000000000 10000000000 10000000000 1 10000000000 10000000000 10000000000 10000000000 1 10000000000 10000000000 10000000000 1 10000000000 10000000000 10000000000 1 10000000000 10000000000 10000000000 10000000000 10000000000 10000000000 10000000000 10000000000 0 10000000000 10000000000 10000000000
10000000000 10000000000 10000000000 1 10000000000 10000000000 10000000000 10000000000 10000000000 10000000000 1 10000000000 10000000000 10000000000 10000000000 10000000000 10000000000 10000000000 1 10000000000 10000000000 10000000000 1 10000000000 10000000000 10000000000 10000000000 1 10000000000 10000000000 10000000000 10000000000 10000000000 10000000000 10000000000 10000000000 10000000000 10000000000 10000000000 1 1 10000000000 10000000000 10000000000 10000000000 10000000000 10000000000 0 10000000000 10000000000
10000000000 10000000000 10000000000 10000000000 10000000000 10000000000 1 10000000000 10000000000 1 10000000000 10000000000 10000000000 10000000000 10000000000 10000000000 1 10000000000 10000000000 10000000000 10000000000 10000000000 10000000000 1 10000000000 10000000000 10000000000 10000000000 1 10000000000 10000000000 10000000000 10000000000 10000000000 10000000000 1 10000000000 10000000000 10000000000 1 10000000000 10000000000 10000000000 10000000000 10000000000 10000000000 10000000000 10000000000 0 10000000000
10000000000 10000000000 10000000000 10000000000 10000000000 10000000000 10000000000 1 10000000000 10000000000 10000000000 10000000000 1 10000000000 10000000000 10000000000 1 10000000000 10000000000 10000000000 1 10000000000 10000000000 10000000000 10000000000 10000000000 10000000000 1 10000000000 10000000000 10000000000 10000000000 10000000000 10000000000 1 10000000000 10000000000 10000000000 1 10000000000 10000000000 10000000000 10000000000 10000000000 10000000000 10000000000 10000000000 10000000000 10000000000 0
EOF